111111111111111111111111111111111
100000000000100010000000001000001
101111101110101010111110111011101
100010001000101000100010100010001
111010111011101110101011101110111
101010100000101000101000100010001
101010111110101111101110111011101
100010001000001000100010100010001
101111101111111010101110101110101
100010101000100010001000101000101
111010101010101111111011101011111
100000101010100000100010001000001
111111101010111110101010111110101
100000001010000010101010100010101
101111111010101110101110101010101
100010001010101000100000101010101
101010101010101011111111101011101
101000100010101000100000101000001
101111111110101110101110101111101
100000001010101000100010001000101
111111101010111011111010111010111
100000100010001000100010100010001
101010101111101011101011101111101
101010101000100010001010001000001
111010101010111110111010111011111
100010101010000000100010001010001
101111101011111111111111101010111
100000001000000000000000001000101
101111111111111111111111111111101
101000000000100000000010000000001
101110111110101111111011111011101
100000100000001000000000000010001
111111111111111111111111111111111
